(define-fun inv2 ((x!0 Int) (x!1 Int) (x!2 Int) (x!3 Int)) Bool
  (let ((a!1 (not (<= (+ (* 3 x!0) x!1) (- 1))))
        (a!2 (not (>= (+ x!0 (* (- 1) x!3)) 0)))
        (a!3 (not (>= (+ x!0 (* (- 1) x!1)) 0)))
        (a!4 (not (>= (+ x!0 (* (- 1) x!3)) (- 1))))
        (a!5 (not (>= (+ x!0 (* (- 1) x!3)) (- 2))))
        (a!6 (not (>= (+ x!0 (* (- 1) x!3)) (- 3))))
        (a!8 (not (>= (+ x!0 (* (- 1) x!3)) (- 4))))
        (a!9 (not (<= (+ (* 2 x!0) x!1) 0))))
  (let ((a!7 (or (not (<= x!2 0))
                 a!3
                 (not (<= x!1 1))
                 (not (<= (+ x!0 x!1) 1))
                 a!6))
        (a!10 (or (not (<= x!2 0))
                  a!3
                  (not (<= x!1 1))
                  (not (<= (+ x!0 x!1) 1))
                  a!8
                  a!9)))
    (and (or (not (<= x!2 0)) a!1)
         (or a!2 (not (<= x!2 0)))
         (not (<= x!2 (- 1)))
         (or (not (<= x!2 0)) a!3 a!4)
         (or (not (<= x!1 1)) (not (<= x!2 0)) a!3 a!5)
         a!7
         a!10))))

